(declare-fun bvlambda_47_ () (_ BitVec 1))
(declare-fun bvlambda_48_ () (_ BitVec 5))
(declare-fun a186 () (Array (_ BitVec 1) (_ BitVec 12)))
(assert
(let (($e1 (_ bv0 1)))
(let (($e21 (_ bv0 12)))
(let (($e23 (_ bv72 7)))
(let (($e42 (_ bv20 12)))
(let (($e276 (concat $e1 bvlambda_47_)))
(let (($e277 (concat $e276 bvlambda_48_)))
(let (($e278      (bvult        $e23  $e277)         ))
(let (($e711 (store a186 (bvnot $e1) $e42)))
(let (($e712 (store $e711        $e278  $e21)))
(let (($e1032 (select $e712 (bvnot $e1))))
              (   extract      $e1032)
                                                                                                                                                                                                                                                                                                                                                                                                                                                                                                                                                                                                                                                                                                                                                                                                                                                                                                                                                                                                                                                                                                                                                                                                                                                                                                                                                                                                                                                                                                                                                                                                                                                                                                                                                                                                                                                                                                                                                                                                                                                                                        )                                                                                                                                                                                                                                                                                                                               ))                                                                                                                                                                                                                                                                                                                                                                                                                                                )))                                                                                                                                                                           )                  ) )                   ))
